p cnf 7230 17
5937 -6118 0
-3430 -3442 -3444 -3456 -5937 6117 0
3430 -6118 0
5937 -6116 0
3442 -6118 0
-4568 -6003 -6113 0
4568 -6114 0
-3886 -5937 6115 0
3456 -6118 0
3444 -6118 0
-6117 6118 0
6113 6114 0
-6115 6116 0
3886 -6116 0
6003 -6114 0
3456 -6120 0
5937 -6120 0
